results/mps/BA_09_deadline_heurTrue.mps
NAME JobShopModel
ROWS
 N  OBJ
 G  c0      
 L  c1      
 G  c2      
 L  c3      
 G  c4      
 L  c5      
 G  c6      
 G  c7      
 G  c8      
 E  c9      
 E  c10     
 E  c11     
 E  c12     
 E  c13     
 E  c14     
 E  c15     
 E  c16     
 E  c17     
 L  c18     
 L  c19     
 L  c20     
 L  c21     
 L  c22     
 L  c23     
 L  c24     
 L  c25     
 L  c26     
 G  c27     
 G  c28     
 G  c29     
 G  c30     
 G  c31     
 G  c32     
 G  c33     
 G  c34     
 G  c35     
 G  c36     
 G  c37     
 G  c38     
 G  c39     
 G  c40     
 G  c41     
 G  c42     
 G  c43     
 G  c44     
 G  c45     
 G  c46     
 G  c47     
 G  c48     
 G  c49     
 G  c50     
 G  c51     
 G  c52     
 G  c53     
 G  c54     
 G  c55     
 G  c56     
 G  c57     
 G  c58     
 G  c59     
 G  c60     
 G  c61     
 G  c62     
 G  c63     
 G  c64     
 G  c65     
 G  c66     
 G  c67     
 G  c68     
 G  c69     
 G  c70     
 G  c71     
 G  c72     
 G  c73     
 G  c74     
 G  c75     
 G  c76     
 G  c77     
 G  c78     
 G  c79     
 G  c80     
 G  c81     
 G  c82     
 G  c83     
 G  c84     
 G  c85     
 G  c86     
 G  c87     
 G  c88     
 G  c89     
 G  c90     
 G  c91     
 G  c92     
 G  c93     
 G  c94     
 G  c95     
 G  c96     
 G  c97     
 G  c98     
 G  c99     
 G  c100    
 G  c101    
 G  c102    
 G  OF_constraint
COLUMNS
    MARKER    'MARKER'                 'INTORG'
    y[0,0,1]  c0        4
    y[0,0,1]  c1        4
    y[0,0,1]  c9        1
    y[0,0,1]  c18       -10000000
    y[0,0,1]  c33       -10000000
    y[0,0,1]  c34       -10000000
    y[0,0,1]  c35       -10000000
    y[0,0,1]  c36       -10000000
    y[0,0,1]  c37       -10000000
    y[0,0,1]  c38       -10000000
    y[0,0,1]  c39       -10000000
    y[0,0,1]  c40       -10000000
    y[0,0,1]  c41       -10000000
    y[0,0,1]  c42       -10000000
    y[0,0,1]  c43       -10000000
    y[0,0,1]  c44       -10000000
    y[0,0,1]  c45       -10000000
    y[0,0,1]  c46       -10000000
    y[0,0,1]  c85       -2
    y[0,1,1]  c10       1
    y[0,1,1]  c19       -10000000
    y[0,1,1]  c27       -3
    y[0,1,1]  c33       -10000000
    y[0,1,1]  c34       -10000000
    y[0,1,1]  c45       -10000000
    y[0,1,1]  c46       -10000000
    y[0,1,1]  c47       -10000000
    y[0,1,1]  c48       -10000000
    y[0,1,1]  c49       -10000000
    y[0,1,1]  c50       -10000000
    y[0,1,1]  c51       -10000000
    y[0,1,1]  c52       -10000000
    y[0,1,1]  c53       -10000000
    y[0,1,1]  c54       -10000000
    y[0,1,1]  c55       -10000000
    y[0,1,1]  c56       -10000000
    y[0,1,1]  c87       -1
    y[0,2,0]  c11       1
    y[0,2,0]  c20       -10000000
    y[0,2,0]  c28       -3
    y[0,2,0]  c89       -1
    y[1,0,1]  c2        4
    y[1,0,1]  c3        4
    y[1,0,1]  c12       1
    y[1,0,1]  c21       -10000000
    y[1,0,1]  c35       -10000000
    y[1,0,1]  c36       -10000000
    y[1,0,1]  c47       -10000000
    y[1,0,1]  c48       -10000000
    y[1,0,1]  c57       -10000000
    y[1,0,1]  c58       -10000000
    y[1,0,1]  c59       -10000000
    y[1,0,1]  c60       -10000000
    y[1,0,1]  c61       -10000000
    y[1,0,1]  c62       -10000000
    y[1,0,1]  c63       -10000000
    y[1,0,1]  c64       -10000000
    y[1,0,1]  c65       -10000000
    y[1,0,1]  c66       -10000000
    y[1,1,2]  c13       1
    y[1,1,2]  c22       -10000000
    y[1,1,2]  c29       -3
    y[1,1,2]  c93       -2
    y[1,2,1]  c14       1
    y[1,2,1]  c23       -10000000
    y[1,2,1]  c30       -2
    y[1,2,1]  c37       -10000000
    y[1,2,1]  c38       -10000000
    y[1,2,1]  c49       -10000000
    y[1,2,1]  c50       -10000000
    y[1,2,1]  c57       -10000000
    y[1,2,1]  c58       -10000000
    y[1,2,1]  c65       -10000000
    y[1,2,1]  c66       -10000000
    y[1,2,1]  c67       -10000000
    y[1,2,1]  c68       -10000000
    y[1,2,1]  c69       -10000000
    y[1,2,1]  c70       -10000000
    y[1,2,1]  c71       -10000000
    y[1,2,1]  c72       -10000000
    y[2,0,1]  c4        4
    y[2,0,1]  c5        4
    y[2,0,1]  c15       1
    y[2,0,1]  c24       -10000000
    y[2,0,1]  c39       -10000000
    y[2,0,1]  c40       -10000000
    y[2,0,1]  c51       -10000000
    y[2,0,1]  c52       -10000000
    y[2,0,1]  c59       -10000000
    y[2,0,1]  c60       -10000000
    y[2,0,1]  c67       -10000000
    y[2,0,1]  c68       -10000000
    y[2,0,1]  c73       -10000000
    y[2,0,1]  c74       -10000000
    y[2,0,1]  c75       -10000000
    y[2,0,1]  c76       -10000000
    y[2,0,1]  c77       -10000000
    y[2,0,1]  c78       -10000000
    y[2,0,1]  c81       -10000000
    y[2,0,1]  c82       -10000000
    y[2,0,1]  c97       -1
    y[2,1,1]  c16       1
    y[2,1,1]  c25       -10000000
    y[2,1,1]  c31       -3
    y[2,1,1]  c41       -10000000
    y[2,1,1]  c42       -10000000
    y[2,1,1]  c53       -10000000
    y[2,1,1]  c54       -10000000
    y[2,1,1]  c61       -10000000
    y[2,1,1]  c62       -10000000
    y[2,1,1]  c69       -10000000
    y[2,1,1]  c70       -10000000
    y[2,1,1]  c73       -10000000
    y[2,1,1]  c74       -10000000
    y[2,1,1]  c77       -10000000
    y[2,1,1]  c78       -10000000
    y[2,1,1]  c79       -10000000
    y[2,1,1]  c80       -10000000
    y[2,1,1]  c83       -10000000
    y[2,1,1]  c84       -10000000
    y[2,1,1]  c99       -2
    y[2,2,1]  c17       1
    y[2,2,1]  c26       -10000000
    y[2,2,1]  c32       -4
    y[2,2,1]  c43       -10000000
    y[2,2,1]  c44       -10000000
    y[2,2,1]  c55       -10000000
    y[2,2,1]  c56       -10000000
    y[2,2,1]  c63       -10000000
    y[2,2,1]  c64       -10000000
    y[2,2,1]  c71       -10000000
    y[2,2,1]  c72       -10000000
    y[2,2,1]  c75       -10000000
    y[2,2,1]  c76       -10000000
    y[2,2,1]  c79       -10000000
    y[2,2,1]  c80       -10000000
    y[2,2,1]  c81       -10000000
    y[2,2,1]  c82       -10000000
    y[2,2,1]  c83       -10000000
    y[2,2,1]  c84       -10000000
    y[2,2,1]  c101      -1
    x[0,0,0,0]  OBJ       0
    x[0,0,0,1]  c33       10000000
    x[0,0,0,1]  c34       -10000000
    x[0,0,0,2]  OBJ       0
    x[0,0,1,0]  c35       10000000
    x[0,0,1,0]  c36       -10000000
    x[0,0,1,1]  OBJ       0
    x[0,0,1,2]  c37       10000000
    x[0,0,1,2]  c38       -10000000
    x[0,0,2,0]  c39       10000000
    x[0,0,2,0]  c40       -10000000
    x[0,0,2,1]  c41       10000000
    x[0,0,2,1]  c42       -10000000
    x[0,0,2,2]  c43       10000000
    x[0,0,2,2]  c44       -10000000
    x[0,1,0,0]  c45       10000000
    x[0,1,0,0]  c46       -10000000
    x[0,1,0,1]  OBJ       0
    x[0,1,0,2]  OBJ       0
    x[0,1,1,0]  c47       10000000
    x[0,1,1,0]  c48       -10000000
    x[0,1,1,1]  OBJ       0
    x[0,1,1,2]  c49       10000000
    x[0,1,1,2]  c50       -10000000
    x[0,1,2,0]  c51       10000000
    x[0,1,2,0]  c52       -10000000
    x[0,1,2,1]  c53       10000000
    x[0,1,2,1]  c54       -10000000
    x[0,1,2,2]  c55       10000000
    x[0,1,2,2]  c56       -10000000
    x[0,2,0,0]  OBJ       0
    x[0,2,0,1]  OBJ       0
    x[0,2,0,2]  OBJ       0
    x[0,2,1,0]  OBJ       0
    x[0,2,1,1]  OBJ       0
    x[0,2,1,2]  OBJ       0
    x[0,2,2,0]  OBJ       0
    x[0,2,2,1]  OBJ       0
    x[0,2,2,2]  OBJ       0
    x[1,0,0,0]  OBJ       0
    x[1,0,0,1]  OBJ       0
    x[1,0,0,2]  OBJ       0
    x[1,0,1,0]  OBJ       0
    x[1,0,1,1]  OBJ       0
    x[1,0,1,2]  c57       10000000
    x[1,0,1,2]  c58       -10000000
    x[1,0,2,0]  c59       10000000
    x[1,0,2,0]  c60       -10000000
    x[1,0,2,1]  c61       10000000
    x[1,0,2,1]  c62       -10000000
    x[1,0,2,2]  c63       10000000
    x[1,0,2,2]  c64       -10000000
    x[1,1,0,0]  OBJ       0
    x[1,1,0,1]  OBJ       0
    x[1,1,0,2]  OBJ       0
    x[1,1,1,0]  OBJ       0
    x[1,1,1,1]  OBJ       0
    x[1,1,1,2]  OBJ       0
    x[1,1,2,0]  OBJ       0
    x[1,1,2,1]  OBJ       0
    x[1,1,2,2]  OBJ       0
    x[1,2,0,0]  OBJ       0
    x[1,2,0,1]  OBJ       0
    x[1,2,0,2]  OBJ       0
    x[1,2,1,0]  c65       10000000
    x[1,2,1,0]  c66       -10000000
    x[1,2,1,1]  OBJ       0
    x[1,2,1,2]  OBJ       0
    x[1,2,2,0]  c67       10000000
    x[1,2,2,0]  c68       -10000000
    x[1,2,2,1]  c69       10000000
    x[1,2,2,1]  c70       -10000000
    x[1,2,2,2]  c71       10000000
    x[1,2,2,2]  c72       -10000000
    x[2,0,0,0]  OBJ       0
    x[2,0,0,1]  OBJ       0
    x[2,0,0,2]  OBJ       0
    x[2,0,1,0]  OBJ       0
    x[2,0,1,1]  OBJ       0
    x[2,0,1,2]  OBJ       0
    x[2,0,2,0]  OBJ       0
    x[2,0,2,1]  c73       10000000
    x[2,0,2,1]  c74       -10000000
    x[2,0,2,2]  c75       10000000
    x[2,0,2,2]  c76       -10000000
    x[2,1,0,0]  OBJ       0
    x[2,1,0,1]  OBJ       0
    x[2,1,0,2]  OBJ       0
    x[2,1,1,0]  OBJ       0
    x[2,1,1,1]  OBJ       0
    x[2,1,1,2]  OBJ       0
    x[2,1,2,0]  c77       10000000
    x[2,1,2,0]  c78       -10000000
    x[2,1,2,1]  OBJ       0
    x[2,1,2,2]  c79       10000000
    x[2,1,2,2]  c80       -10000000
    x[2,2,0,0]  OBJ       0
    x[2,2,0,1]  OBJ       0
    x[2,2,0,2]  OBJ       0
    x[2,2,1,0]  OBJ       0
    x[2,2,1,1]  OBJ       0
    x[2,2,1,2]  OBJ       0
    x[2,2,2,0]  c81       10000000
    x[2,2,2,0]  c82       -10000000
    x[2,2,2,1]  c83       10000000
    x[2,2,2,1]  c84       -10000000
    x[2,2,2,2]  OBJ       0
    s[0,0,1]  c0        1
    s[0,0,1]  c1        1
    s[0,0,1]  c18       1
    s[0,0,1]  c27       1
    s[0,0,1]  c33       -1
    s[0,0,1]  c34       1
    s[0,0,1]  c35       -1
    s[0,0,1]  c36       1
    s[0,0,1]  c37       -1
    s[0,0,1]  c38       1
    s[0,0,1]  c39       -1
    s[0,0,1]  c40       1
    s[0,0,1]  c41       -1
    s[0,0,1]  c42       1
    s[0,0,1]  c43       -1
    s[0,0,1]  c44       1
    s[0,0,1]  c45       1
    s[0,0,1]  c46       -1
    s[0,0,1]  c85       1
    s[0,0,1]  c86       1
    s[0,1,1]  c19       1
    s[0,1,1]  c27       -1
    s[0,1,1]  c28       1
    s[0,1,1]  c33       1
    s[0,1,1]  c34       -1
    s[0,1,1]  c45       -1
    s[0,1,1]  c46       1
    s[0,1,1]  c47       -1
    s[0,1,1]  c48       1
    s[0,1,1]  c49       -1
    s[0,1,1]  c50       1
    s[0,1,1]  c51       -1
    s[0,1,1]  c52       1
    s[0,1,1]  c53       -1
    s[0,1,1]  c54       1
    s[0,1,1]  c55       -1
    s[0,1,1]  c56       1
    s[0,1,1]  c87       1
    s[0,1,1]  c88       1
    s[0,2,0]  c20       1
    s[0,2,0]  c28       -1
    s[0,2,0]  c89       1
    s[0,2,0]  c90       1
    s[1,0,1]  c2        1
    s[1,0,1]  c3        1
    s[1,0,1]  c21       1
    s[1,0,1]  c29       1
    s[1,0,1]  c35       1
    s[1,0,1]  c36       -1
    s[1,0,1]  c47       1
    s[1,0,1]  c48       -1
    s[1,0,1]  c57       -1
    s[1,0,1]  c58       1
    s[1,0,1]  c59       -1
    s[1,0,1]  c60       1
    s[1,0,1]  c61       -1
    s[1,0,1]  c62       1
    s[1,0,1]  c63       -1
    s[1,0,1]  c64       1
    s[1,0,1]  c65       1
    s[1,0,1]  c66       -1
    s[1,0,1]  c91       1
    s[1,0,1]  c92       1
    s[1,1,2]  c22       1
    s[1,1,2]  c29       -1
    s[1,1,2]  c30       1
    s[1,1,2]  c93       1
    s[1,1,2]  c94       1
    s[1,2,1]  c23       1
    s[1,2,1]  c30       -1
    s[1,2,1]  c37       1
    s[1,2,1]  c38       -1
    s[1,2,1]  c49       1
    s[1,2,1]  c50       -1
    s[1,2,1]  c57       1
    s[1,2,1]  c58       -1
    s[1,2,1]  c65       -1
    s[1,2,1]  c66       1
    s[1,2,1]  c67       -1
    s[1,2,1]  c68       1
    s[1,2,1]  c69       -1
    s[1,2,1]  c70       1
    s[1,2,1]  c71       -1
    s[1,2,1]  c72       1
    s[1,2,1]  c95       1
    s[1,2,1]  c96       1
    s[2,0,1]  c4        1
    s[2,0,1]  c5        1
    s[2,0,1]  c24       1
    s[2,0,1]  c31       1
    s[2,0,1]  c32       1
    s[2,0,1]  c39       1
    s[2,0,1]  c40       -1
    s[2,0,1]  c51       1
    s[2,0,1]  c52       -1
    s[2,0,1]  c59       1
    s[2,0,1]  c60       -1
    s[2,0,1]  c67       1
    s[2,0,1]  c68       -1
    s[2,0,1]  c73       -1
    s[2,0,1]  c74       1
    s[2,0,1]  c75       -1
    s[2,0,1]  c76       1
    s[2,0,1]  c77       1
    s[2,0,1]  c78       -1
    s[2,0,1]  c81       1
    s[2,0,1]  c82       -1
    s[2,0,1]  c97       1
    s[2,0,1]  c98       1
    s[2,1,1]  c25       1
    s[2,1,1]  c31       -1
    s[2,1,1]  c41       1
    s[2,1,1]  c42       -1
    s[2,1,1]  c53       1
    s[2,1,1]  c54       -1
    s[2,1,1]  c61       1
    s[2,1,1]  c62       -1
    s[2,1,1]  c69       1
    s[2,1,1]  c70       -1
    s[2,1,1]  c73       1
    s[2,1,1]  c74       -1
    s[2,1,1]  c77       -1
    s[2,1,1]  c78       1
    s[2,1,1]  c79       -1
    s[2,1,1]  c80       1
    s[2,1,1]  c83       1
    s[2,1,1]  c84       -1
    s[2,1,1]  c99       1
    s[2,1,1]  c100      1
    s[2,2,1]  c26       1
    s[2,2,1]  c32       -1
    s[2,2,1]  c43       1
    s[2,2,1]  c44       -1
    s[2,2,1]  c55       1
    s[2,2,1]  c56       -1
    s[2,2,1]  c63       1
    s[2,2,1]  c64       -1
    s[2,2,1]  c71       1
    s[2,2,1]  c72       -1
    s[2,2,1]  c75       1
    s[2,2,1]  c76       -1
    s[2,2,1]  c79       1
    s[2,2,1]  c80       -1
    s[2,2,1]  c81       -1
    s[2,2,1]  c82       1
    s[2,2,1]  c83       -1
    s[2,2,1]  c84       1
    s[2,2,1]  c101      1
    s[2,2,1]  c102      1
    Z_FO      OBJ       1
    Z_FO      OF_constraint  1
    C100      c0        -10000000
    C100      c1        -10000000
    C100      c6        1
    C100      OF_constraint  5
    C101      c2        -10000000
    C101      c3        -10000000
    C101      c7        1
    C101      OF_constraint  5
    C102      c4        -10000000
    C102      c5        -10000000
    C102      c8        1
    C102      OF_constraint  2
    MARKER    'MARKER'                 'INTEND'
RHS
    RHS1      c0        -9999991
    RHS1      c1        9
    RHS1      c2        -9999991
    RHS1      c3        9
    RHS1      c4        -9999994
    RHS1      c5        6
    RHS1      c9        1
    RHS1      c10       1
    RHS1      c11       1
    RHS1      c12       1
    RHS1      c13       1
    RHS1      c14       1
    RHS1      c15       1
    RHS1      c16       1
    RHS1      c17       1
    RHS1      c33       -19999992
    RHS1      c34       -29999985
    RHS1      c35       -19999987
    RHS1      c36       -29999984
    RHS1      c37       -19999986
    RHS1      c38       -29999986
    RHS1      c39       -19999987
    RHS1      c40       -29999992
    RHS1      c41       -19999984
    RHS1      c42       -29999995
    RHS1      c43       -19999988
    RHS1      c44       -29999988
    RHS1      c45       -19999985
    RHS1      c46       -29999992
    RHS1      c47       -19999993
    RHS1      c48       -29999994
    RHS1      c49       -19999995
    RHS1      c50       -29999986
    RHS1      c51       -19999981
    RHS1      c52       -29999984
    RHS1      c53       -19999993
    RHS1      c54       -29999993
    RHS1      c55       -19999985
    RHS1      c56       -29999981
    RHS1      c57       -19999992
    RHS1      c58       -29999994
    RHS1      c59       -19999981
    RHS1      c60       -29999986
    RHS1      c61       -19999994
    RHS1      c62       -29999995
    RHS1      c63       -19999984
    RHS1      c64       -29999981
    RHS1      c65       -19999994
    RHS1      c66       -29999992
    RHS1      c67       -19999990
    RHS1      c68       -29999990
    RHS1      c69       -19999978
    RHS1      c70       -29999977
    RHS1      c71       -19999989
    RHS1      c72       -29999984
    RHS1      c73       -19999992
    RHS1      c74       -29999981
    RHS1      c75       -19999987
    RHS1      c76       -29999990
    RHS1      c77       -19999981
    RHS1      c78       -29999992
    RHS1      c79       -19999987
    RHS1      c80       -29999984
    RHS1      c81       -19999990
    RHS1      c82       -29999987
    RHS1      c83       -19999984
    RHS1      c84       -29999987
BOUNDS
 BV BND1      y[0,0,1]
 BV BND1      y[0,1,1]
 BV BND1      y[0,2,0]
 BV BND1      y[1,0,1]
 BV BND1      y[1,1,2]
 BV BND1      y[1,2,1]
 BV BND1      y[2,0,1]
 BV BND1      y[2,1,1]
 BV BND1      y[2,2,1]
 BV BND1      x[0,0,0,0]
 BV BND1      x[0,0,0,1]
 BV BND1      x[0,0,0,2]
 BV BND1      x[0,0,1,0]
 BV BND1      x[0,0,1,1]
 BV BND1      x[0,0,1,2]
 BV BND1      x[0,0,2,0]
 BV BND1      x[0,0,2,1]
 BV BND1      x[0,0,2,2]
 BV BND1      x[0,1,0,0]
 BV BND1      x[0,1,0,1]
 BV BND1      x[0,1,0,2]
 BV BND1      x[0,1,1,0]
 BV BND1      x[0,1,1,1]
 BV BND1      x[0,1,1,2]
 BV BND1      x[0,1,2,0]
 BV BND1      x[0,1,2,1]
 BV BND1      x[0,1,2,2]
 BV BND1      x[0,2,0,0]
 BV BND1      x[0,2,0,1]
 BV BND1      x[0,2,0,2]
 BV BND1      x[0,2,1,0]
 BV BND1      x[0,2,1,1]
 BV BND1      x[0,2,1,2]
 BV BND1      x[0,2,2,0]
 BV BND1      x[0,2,2,1]
 BV BND1      x[0,2,2,2]
 BV BND1      x[1,0,0,0]
 BV BND1      x[1,0,0,1]
 BV BND1      x[1,0,0,2]
 BV BND1      x[1,0,1,0]
 BV BND1      x[1,0,1,1]
 BV BND1      x[1,0,1,2]
 BV BND1      x[1,0,2,0]
 BV BND1      x[1,0,2,1]
 BV BND1      x[1,0,2,2]
 BV BND1      x[1,1,0,0]
 BV BND1      x[1,1,0,1]
 BV BND1      x[1,1,0,2]
 BV BND1      x[1,1,1,0]
 BV BND1      x[1,1,1,1]
 BV BND1      x[1,1,1,2]
 BV BND1      x[1,1,2,0]
 BV BND1      x[1,1,2,1]
 BV BND1      x[1,1,2,2]
 BV BND1      x[1,2,0,0]
 BV BND1      x[1,2,0,1]
 BV BND1      x[1,2,0,2]
 BV BND1      x[1,2,1,0]
 BV BND1      x[1,2,1,1]
 BV BND1      x[1,2,1,2]
 BV BND1      x[1,2,2,0]
 BV BND1      x[1,2,2,1]
 BV BND1      x[1,2,2,2]
 BV BND1      x[2,0,0,0]
 BV BND1      x[2,0,0,1]
 BV BND1      x[2,0,0,2]
 BV BND1      x[2,0,1,0]
 BV BND1      x[2,0,1,1]
 BV BND1      x[2,0,1,2]
 BV BND1      x[2,0,2,0]
 BV BND1      x[2,0,2,1]
 BV BND1      x[2,0,2,2]
 BV BND1      x[2,1,0,0]
 BV BND1      x[2,1,0,1]
 BV BND1      x[2,1,0,2]
 BV BND1      x[2,1,1,0]
 BV BND1      x[2,1,1,1]
 BV BND1      x[2,1,1,2]
 BV BND1      x[2,1,2,0]
 BV BND1      x[2,1,2,1]
 BV BND1      x[2,1,2,2]
 BV BND1      x[2,2,0,0]
 BV BND1      x[2,2,0,1]
 BV BND1      x[2,2,0,2]
 BV BND1      x[2,2,1,0]
 BV BND1      x[2,2,1,1]
 BV BND1      x[2,2,1,2]
 BV BND1      x[2,2,2,0]
 BV BND1      x[2,2,2,1]
 BV BND1      x[2,2,2,2]
 LI BND1      s[0,0,1]  0
 LI BND1      s[0,1,1]  0
 LI BND1      s[0,2,0]  0
 LI BND1      s[1,0,1]  0
 LI BND1      s[1,1,2]  0
 LI BND1      s[1,2,1]  0
 LI BND1      s[2,0,1]  0
 LI BND1      s[2,1,1]  0
 LI BND1      s[2,2,1]  0
 LI BND1      Z_FO      0
 BV BND1      C100    
 BV BND1      C101    
 BV BND1      C102    
QCMATRIX   OF_constraint
    s[0,0,1]  C100      -0.5
    C100      s[0,0,1]  -0.5
    s[1,0,1]  C101      -0.5
    C101      s[1,0,1]  -0.5
    s[2,0,1]  C102      -0.5
    C102      s[2,0,1]  -0.5
ENDATA
