results/log/BA_09_deadline_heurTrue.log

Gurobi 10.0.1 (win64) logging started Thu Oct  5 12:31:49 2023

Set parameter LogFile to value "./results//log/BA_09_deadline_heurTrue.log"
Gurobi Optimizer version 10.0.1 build v10.0.1rc0 (win64)

CPU model: AMD Ryzen 7 3700X 8-Core Processor, instruction set [SSE2|AVX|AVX2]
Thread count: 8 physical cores, 16 logical processors, using up to 16 threads

Optimize a model with 103 rows, 103 columns and 351 nonzeros
Model fingerprint: 0x21f73cd4
Model has 1 quadratic constraint
Variable types: 0 continuous, 103 integer (93 binary)
Coefficient statistics:
  Matrix range     [1e+00, 1e+07]
  QMatrix range    [1e+00, 1e+00]
  QLMatrix range   [1e+00, 5e+00]
  Objective range  [1e+00, 1e+00]
  Bounds range     [1e+00, 1e+00]
  RHS range        [1e+00, 3e+07]

User MIP start produced solution with objective 142 (0.00s)
Loaded user MIP start with objective 142

Presolve removed 58 rows and 77 columns
Presolve time: 0.00s
Presolved: 45 rows, 26 columns, 128 nonzeros
Variable types: 0 continuous, 26 integer (18 binary)

Root relaxation: objective 3.800000e+01, 15 iterations, 0.00 seconds (0.00 work units)

    Nodes    |    Current Node    |     Objective Bounds      |     Work
 Expl Unexpl |  Obj  Depth IntInf | Incumbent    BestBd   Gap | It/Node Time

     0     0   38.00000    0   11  142.00000   38.00000  73.2%     -    0s
H    0     0                      97.0000000   54.00000  44.3%     -    0s
H    0     0                      95.0000000   54.00000  43.2%     -    0s
     0     0   54.00000    0    8   95.00000   54.00000  43.2%     -    0s
H    0     0                      92.0000000   54.00000  41.3%     -    0s
     0     0   59.00000    0   10   92.00000   59.00000  35.9%     -    0s

Cutting planes:
  Implied bound: 7

Explored 1 nodes (71 simplex iterations) in 0.01 seconds (0.00 work units)
Thread count was 16 (of 16 available processors)

Solution count 4: 92 95 97 142 

Optimal solution found (tolerance 1.00e-04)
Best objective 9.200000000000e+01, best bound 9.200000000000e+01, gap 0.0000%
Warning: constraint name "precedence between 0,0 to 0,1 if x_[0,0,0,1,1]=0, i.e. 0,1 before 0,0" has a space
Warning: constraint name "precedence between 0,0 to 0,1 if x_[0,0,0,1,1]=0, i.e. 0,1 before 0,0" has a space
Warning: default constraint names used to write mps file
